
Gurobi 12.0.3 (linux64) logging started Fri Jan  2 04:15:56 2026

Set parameter LogFile to value "/home/bazzo/Scrivania/fjsp_rescheduling/simulations/logs/EX17/gurobi_exp17.log"
Set parameter OutputFlag to value 1
Set parameter TimeLimit to value 2160
Set parameter Presolve to value 2
Set parameter MIPFocus to value 3
Set parameter Heuristics to value 0.1
Set parameter ImproveStartGap to value 0.5
Set parameter Presolve to value 2
Gurobi Optimizer version 12.0.3 build v12.0.3rc0 (linux64 - "Ubuntu 22.04.5 LTS")

CPU model: Intel(R) Xeon(R) W-2145 CPU @ 3.70GHz, instruction set [SSE2|AVX|AVX2|AVX512]
Thread count: 8 physical cores, 16 logical processors, using up to 16 threads

Non-default parameters:
TimeLimit  2160
Heuristics  0.1
MIPFocus  3
Presolve  2
ImproveStartGap  0.5

Optimize a model with 632 rows, 431 columns and 2120 nonzeros
Model fingerprint: 0x05640064
Model has 5 quadratic constraints
Variable types: 5 continuous, 426 integer (390 binary)
Coefficient statistics:
  Matrix range     [1e+00, 2e+03]
  QMatrix range    [1e+00, 1e+00]
  QLMatrix range   [1e+00, 1e+00]
  Objective range  [1e+00, 1e+00]
  Bounds range     [1e+00, 1e+00]
  RHS range        [1e+00, 5e+03]
Presolve removed 527 rows and 367 columns
Presolve time: 0.01s
Presolved: 105 rows, 64 columns, 466 nonzeros
Presolved model has 5 quadratic constraint(s)
Variable types: 5 continuous, 59 integer (48 binary)
Root relaxation presolve removed 57 rows and 33 columns
Root relaxation presolved: 48 rows, 31 columns, 215 nonzeros


Root relaxation: objective 7.137000e+03, 9 iterations, 0.00 seconds (0.00 work units)

    Nodes    |    Current Node    |     Objective Bounds      |     Work
 Expl Unexpl |  Obj  Depth IntInf | Incumbent    BestBd   Gap | It/Node Time

H    0     0                    119621.00000 7137.00000  94.0%     -    0s
*    0     0               0    119621.00000 7137.00000  94.0%     -    0s
     0     0 7137.00000    0    8 119621.000 7137.00000  94.0%     -    0s
H    0     0                    79845.000000 7137.00000  91.1%     -    0s
     0     0 10501.0000    0    2 79845.0000 10501.0000  86.8%     -    0s
     0     0 10501.0000    0    9 79845.0000 10501.0000  86.8%     -    0s
     0     0 12844.1041    0   11 79845.0000 12844.1041  83.9%     -    0s
     0     0 14319.8176    0   10 79845.0000 14319.8176  82.1%     -    0s
H    0     0                    77069.000000 14319.8176  81.4%     -    0s
     0     0 77069.0000    0   13 77069.0000 77069.0000  0.00%     -    0s

Cutting planes:
  Learned: 2
  Gomory: 4
  Lift-and-project: 1
  Cover: 4
  Implied bound: 3
  Clique: 2
  MIR: 2
  Flow cover: 32
  RLT: 4
  Relax-and-lift: 4

Explored 1 nodes (118 simplex iterations) in 0.08 seconds (0.03 work units)
Thread count was 16 (of 16 available processors)

Solution count 3: 77069 79845 119621 

Optimal solution found (tolerance 1.00e-04)
Best objective 7.706900000000e+04, best bound 7.706900000000e+04, gap 0.0000%

User-callback calls 822, time in user-callback 0.00 sec
Set parameter TimeLimit to value 1080
Gurobi Optimizer version 12.0.3 build v12.0.3rc0 (linux64 - "Ubuntu 22.04.5 LTS")

CPU model: Intel(R) Xeon(R) W-2145 CPU @ 3.70GHz, instruction set [SSE2|AVX|AVX2|AVX512]
Thread count: 8 physical cores, 16 logical processors, using up to 16 threads

Non-default parameters:
TimeLimit  1080
Heuristics  0.1
MIPFocus  3
Presolve  2
ImproveStartGap  0.5

Optimize a model with 633 rows, 431 columns and 2125 nonzeros
Model fingerprint: 0x670b000d
Model has 5 quadratic constraints
Variable types: 5 continuous, 426 integer (390 binary)
Coefficient statistics:
  Matrix range     [1e+00, 2e+03]
  QMatrix range    [1e+00, 1e+00]
  QLMatrix range   [1e+00, 1e+00]
  Objective range  [5e-01, 5e-01]
  Bounds range     [1e+00, 1e+00]
  RHS range        [1e+00, 8e+04]

MIP start from previous solve produced solution with objective 16.5 (0.00s)
Loaded MIP start from previous solve with objective 16.5

Presolve removed 544 rows and 377 columns
Presolve time: 0.01s
Presolved: 89 rows, 54 columns, 402 nonzeros
Presolved model has 5 quadratic constraint(s)
Found heuristic solution: objective 4.0000000
Variable types: 5 continuous, 49 integer (38 binary)
Root relaxation presolve removed 89 rows and 54 columns
Root relaxation presolve: All rows and columns removed

Root relaxation: objective 2.000000e+00, 0 iterations, 0.00 seconds (0.00 work units)

    Nodes    |    Current Node    |     Objective Bounds      |     Work
 Expl Unexpl |  Obj  Depth IntInf | Incumbent    BestBd   Gap | It/Node Time

H    0     0                       2.0000000    2.00000  0.00%     -    0s
     0     0    2.00000    0    4    2.00000    2.00000  0.00%     -    0s

Explored 1 nodes (0 simplex iterations) in 0.01 seconds (0.00 work units)
Thread count was 16 (of 16 available processors)

Solution count 3: 2 4 16.5 

Optimal solution found (tolerance 1.00e-04)
Best objective 2.000000000000e+00, best bound 2.000000000000e+00, gap 0.0000%

User-callback calls 883, time in user-callback 0.00 sec
Set parameter TimeLimit to value 360
Gurobi Optimizer version 12.0.3 build v12.0.3rc0 (linux64 - "Ubuntu 22.04.5 LTS")

CPU model: Intel(R) Xeon(R) W-2145 CPU @ 3.70GHz, instruction set [SSE2|AVX|AVX2|AVX512]
Thread count: 8 physical cores, 16 logical processors, using up to 16 threads

Non-default parameters:
TimeLimit  360
Heuristics  0.1
MIPFocus  3
Presolve  2
ImproveStartGap  0.5

Optimize a model with 635 rows, 431 columns and 2163 nonzeros
Model fingerprint: 0x75f63cb0
Model has 5 quadratic constraints
Variable types: 5 continuous, 426 integer (390 binary)
Coefficient statistics:
  Matrix range     [5e-01, 2e+03]
  QMatrix range    [1e+00, 1e+00]
  QLMatrix range   [1e+00, 1e+00]
  Objective range  [1e+00, 1e+00]
  Bounds range     [1e+00, 1e+00]
  RHS range        [1e+00, 8e+04]

MIP start from previous solve produced solution with objective 640 (0.00s)
Loaded MIP start from previous solve with objective 640

Presolve removed 626 rows and 418 columns
Presolve time: 0.00s
Presolved: 9 rows, 13 columns, 30 nonzeros
Presolved model has 5 quadratic constraint(s)
Variable types: 5 continuous, 8 integer (2 binary)

Resetting heuristic parameters to focus on improving solution
(using Heuristics=0.5 and RINS=10)...

Root relaxation presolve removed 2 rows and 6 columns
Root relaxation presolved: 7 rows, 7 columns, 23 nonzeros


Root relaxation: objective 6.260000e+02, 3 iterations, 0.00 seconds (0.00 work units)

    Nodes    |    Current Node    |     Objective Bounds      |     Work
 Expl Unexpl |  Obj  Depth IntInf | Incumbent    BestBd   Gap | It/Node Time

     0     0  626.00000    0    2  640.00000  626.00000  2.19%     -    0s
H    0     0                     639.0000000  626.00000  2.03%     -    0s
H    0     0                     638.0000000  626.00000  1.88%     -    0s
     0     0  626.00000    0    2  638.00000  626.00000  1.88%     -    0s
H    0     0                     627.0000000  626.00000  0.16%     -    0s
H    0     0                     626.0000000  626.00000  0.00%     -    0s
     0     0  626.00000    0    2  626.00000  626.00000  0.00%     -    0s

Explored 1 nodes (3 simplex iterations) in 0.01 seconds (0.00 work units)
Thread count was 16 (of 16 available processors)

Solution count 5: 626 627 638 ... 640

Optimal solution found (tolerance 1.00e-04)
Best objective 6.260000000000e+02, best bound 6.260000000000e+02, gap 0.0000%

User-callback calls 856, time in user-callback 0.00 sec
